NAME: rd100.tour
TYPE: TOUR
COMMENT: Cost = 9427.333012640955 Time = 17.843422 ms
DIMENSION: 100
TOUR_SECTION
147
89
107
84
51
123
226
365
410
509
559
610
647
701
673
674
654
545
502
531
621
659
667
650
628
445
426
398
428
425
400
402
319
308
302
316
273
199
134
143
142
135
180
354
275
14
3
13
31
118
107
186
147
162
82
43
12
16
236
341
352
510
564
554
483
486
608
666
750
802
865
936
835
826
776
809
881
970
872
856
898
942
907
930
966
889
886
896
879
808
791
876
922
977
941
967
705
313
233
204
-1